Route #1: 1 23 8 12 38 10 16 34 42 17 7 5 1 
Route #2: 1 36 22 11 3 26 9 39 31 1 
Route #3: 1 37 28 14 19 18 21 20 33 1 
Route #4: 1 1 2 15 24 6 1 
Route #5: 1 13 30 29 32 25 27 41 1 
Route #6: 1 4 40 35 1 

Cost 912.1
Time 0.2881


 * Another infos *

 Iterations: 43 Time: 0.2881 sec - 0.0048 min - 0.0001 horas
0.0000 h 0.0048 min
Problem dimension: 43
